data;

param:
I: Value :=
0    30
1    58
2    4
3    51
4    54
5    72
6    10
7    57
8    53
9    32
10    57
11    15
12    81
13    8
14    14
15    75
16    93
17    40
18    10
19    40
20    38
21    40
22    37
23    16
24    22
25    2
26    4
27    82
28    19
29    87
30    68
31    1
32    46
33    24
34    52
35    52
36    48;

param TargetSum := 118;
